\Problem name: compact

Minimize
OBJROW: C
Subject To
ord(0,1):  x(0,0) - x(0,2) >= 9
ord(0,2):  - x(0,0) + x(0,3) >= 8
ord(0,3):  x(0,1) - x(0,3) >= 3
ord(1,1):  x(1,0) - x(1,1) >= 9
ord(1,2):  - x(1,0) + x(1,2) >= 9
ord(1,3):  - x(1,2) + x(1,3) >= 9
ord(2,1):  x(2,1) - x(2,2) >= 2
ord(2,2):  x(2,0) - x(2,1) >= 5
ord(2,3):  - x(2,0) + x(2,3) >= 7
ord(3,1):  - x(3,1) + x(3,2) >= 5
ord(3,2):  - x(3,2) + x(3,3) >= 4
ord(3,3):  x(3,0) - x(3,3) >= 7
triangle2(0,1,0):  y(0,1,0) + y(1,0,0) = 1
triangle2(0,1,1):  y(0,1,1) + y(1,0,1) = 1
triangle2(0,1,2):  y(0,1,2) + y(1,0,2) = 1
triangle2(0,1,3):  y(0,1,3) + y(1,0,3) = 1
triangle2(0,2,0):  y(0,2,0) + y(2,0,0) = 1
triangle2(0,2,1):  y(0,2,1) + y(2,0,1) = 1
triangle2(0,2,2):  y(0,2,2) + y(2,0,2) = 1
triangle2(0,2,3):  y(0,2,3) + y(2,0,3) = 1
triangle2(0,3,0):  y(0,3,0) + y(3,0,0) = 1
triangle2(0,3,1):  y(0,3,1) + y(3,0,1) = 1
triangle2(0,3,2):  y(0,3,2) + y(3,0,2) = 1
triangle2(0,3,3):  y(0,3,3) + y(3,0,3) = 1
triangle2(1,2,0):  y(1,2,0) + y(2,1,0) = 1
triangle2(1,2,1):  y(1,2,1) + y(2,1,1) = 1
triangle2(1,2,2):  y(1,2,2) + y(2,1,2) = 1
triangle2(1,2,3):  y(1,2,3) + y(2,1,3) = 1
triangle2(1,3,0):  y(1,3,0) + y(3,1,0) = 1
triangle2(1,3,1):  y(1,3,1) + y(3,1,1) = 1
triangle2(1,3,2):  y(1,3,2) + y(3,1,2) = 1
triangle2(1,3,3):  y(1,3,3) + y(3,1,3) = 1
triangle2(2,3,0):  y(2,3,0) + y(3,2,0) = 1
triangle2(2,3,1):  y(2,3,1) + y(3,2,1) = 1
triangle2(2,3,2):  y(2,3,2) + y(3,2,2) = 1
triangle2(2,3,3):  y(2,3,3) + y(3,2,3) = 1
MCLinV(0,1,0):  x(0,0) - v(0,1,0) - x(1,0) = 9
MCLinV(1,0,0):  - x(0,0) - v(1,0,0) + x(1,0) = 8
MCLin1(0,1,0):  u(0,1,0) >= -0
MCLin2(0,1,0):  -84 y(1,0,0) - u(0,1,0) <= -0
MCLin3(0,1,0):  73 y(1,0,0) + v(0,1,0) - u(0,1,0) <= 73
MCLin4(0,1,0):  73 y(1,0,0) - u(0,1,0) >= -0
MCLin5(0,1,0):  -84 y(1,0,0) + v(0,1,0) - u(0,1,0) >= -84
MCLin6(1,0,0):  u(1,0,0) >= -0
MCLin7(1,0,0):  -90 y(0,1,0) - u(1,0,0) <= -0
MCLin8(1,0,0):  67 y(0,1,0) + v(1,0,0) - u(1,0,0) <= 67
MCLin9(1,0,0):  67 y(0,1,0) - u(1,0,0) >= -0
MCLin10(1,0,0):  -90 y(0,1,0) + v(1,0,0) - u(1,0,0) >= -90
MCLinV(0,1,1):  x(0,1) - v(0,1,1) - x(1,1) = 9
MCLinV(1,0,1):  - x(0,1) - v(1,0,1) + x(1,1) = 6
MCLin1(0,1,1):  u(0,1,1) >= -0
MCLin2(0,1,1):  -64 y(1,0,1) - u(0,1,1) <= -0
MCLin3(0,1,1):  93 y(1,0,1) + v(0,1,1) - u(0,1,1) <= 93
MCLin4(0,1,1):  93 y(1,0,1) - u(0,1,1) >= -0
MCLin5(0,1,1):  -64 y(1,0,1) + v(0,1,1) - u(0,1,1) >= -64
MCLin6(1,0,1):  u(1,0,1) >= -0
MCLin7(1,0,1):  -108 y(0,1,1) - u(1,0,1) <= -0
MCLin8(1,0,1):  49 y(0,1,1) + v(1,0,1) - u(1,0,1) <= 49
MCLin9(1,0,1):  49 y(0,1,1) - u(1,0,1) >= -0
MCLin10(1,0,1):  -108 y(0,1,1) + v(1,0,1) - u(1,0,1) >= -108
MCLinV(0,1,2):  x(0,2) - v(0,1,2) - x(1,2) = 9
MCLinV(1,0,2):  - x(0,2) - v(1,0,2) + x(1,2) = 9
MCLin1(0,1,2):  u(0,1,2) >= -0
MCLin2(0,1,2):  -102 y(1,0,2) - u(0,1,2) <= -0
MCLin3(0,1,2):  55 y(1,0,2) + v(0,1,2) - u(0,1,2) <= 55
MCLin4(0,1,2):  55 y(1,0,2) - u(0,1,2) >= -0
MCLin5(0,1,2):  -102 y(1,0,2) + v(0,1,2) - u(0,1,2) >= -102
MCLin6(1,0,2):  u(1,0,2) >= -0
MCLin7(1,0,2):  -73 y(0,1,2) - u(1,0,2) <= -0
MCLin8(1,0,2):  84 y(0,1,2) + v(1,0,2) - u(1,0,2) <= 84
MCLin9(1,0,2):  84 y(0,1,2) - u(1,0,2) >= -0
MCLin10(1,0,2):  -73 y(0,1,2) + v(1,0,2) - u(1,0,2) >= -73
MCLinV(0,1,3):  x(0,3) - v(0,1,3) - x(1,3) = 6
MCLinV(1,0,3):  - x(0,3) - v(1,0,3) + x(1,3) = 3
MCLin1(0,1,3):  u(0,1,3) >= -0
MCLin2(0,1,3):  -91 y(1,0,3) - u(0,1,3) <= -0
MCLin3(0,1,3):  66 y(1,0,3) + v(0,1,3) - u(0,1,3) <= 66
MCLin4(0,1,3):  66 y(1,0,3) - u(0,1,3) >= -0
MCLin5(0,1,3):  -91 y(1,0,3) + v(0,1,3) - u(0,1,3) >= -91
MCLin6(1,0,3):  u(1,0,3) >= -0
MCLin7(1,0,3):  -75 y(0,1,3) - u(1,0,3) <= -0
MCLin8(1,0,3):  82 y(0,1,3) + v(1,0,3) - u(1,0,3) <= 82
MCLin9(1,0,3):  82 y(0,1,3) - u(1,0,3) >= -0
MCLin10(1,0,3):  -75 y(0,1,3) + v(1,0,3) - u(1,0,3) >= -75
MCLinV(0,2,0):  x(0,0) - v(0,2,0) - x(2,0) = 7
MCLinV(2,0,0):  - x(0,0) - v(2,0,0) + x(2,0) = 8
MCLin1(0,2,0):  u(0,2,0) >= -0
MCLin2(0,2,0):  -89 y(2,0,0) - u(0,2,0) <= -0
MCLin3(0,2,0):  77 y(2,0,0) + v(0,2,0) - u(0,2,0) <= 77
MCLin4(0,2,0):  77 y(2,0,0) - u(0,2,0) >= -0
MCLin5(0,2,0):  -89 y(2,0,0) + v(0,2,0) - u(0,2,0) >= -89
MCLin6(2,0,0):  u(2,0,0) >= -0
MCLin7(2,0,0):  -92 y(0,2,0) - u(2,0,0) <= -0
MCLin8(2,0,0):  74 y(0,2,0) + v(2,0,0) - u(2,0,0) <= 74
MCLin9(2,0,0):  74 y(0,2,0) - u(2,0,0) >= -0
MCLin10(2,0,0):  -92 y(0,2,0) + v(2,0,0) - u(2,0,0) >= -92
MCLinV(0,2,1):  x(0,1) - v(0,2,1) - x(2,1) = 5
MCLinV(2,0,1):  - x(0,1) - v(2,0,1) + x(2,1) = 6
MCLin1(0,2,1):  u(0,2,1) >= -0
MCLin2(0,2,1):  -71 y(2,0,1) - u(0,2,1) <= -0
MCLin3(0,2,1):  95 y(2,0,1) + v(0,2,1) - u(0,2,1) <= 95
MCLin4(0,2,1):  95 y(2,0,1) - u(0,2,1) >= -0
MCLin5(0,2,1):  -71 y(2,0,1) + v(0,2,1) - u(0,2,1) >= -71
MCLin6(2,0,1):  u(2,0,1) >= -0
MCLin7(2,0,1):  -106 y(0,2,1) - u(2,0,1) <= -0
MCLin8(2,0,1):  60 y(0,2,1) + v(2,0,1) - u(2,0,1) <= 60
MCLin9(2,0,1):  60 y(0,2,1) - u(2,0,1) >= -0
MCLin10(2,0,1):  -106 y(0,2,1) + v(2,0,1) - u(2,0,1) >= -106
MCLinV(0,2,2):  x(0,2) - v(0,2,2) - x(2,2) = 2
MCLinV(2,0,2):  - x(0,2) - v(2,0,2) + x(2,2) = 9
MCLin1(0,2,2):  u(0,2,2) >= -0
MCLin2(0,2,2):  -86 y(2,0,2) - u(0,2,2) <= -0
MCLin3(0,2,2):  80 y(2,0,2) + v(0,2,2) - u(0,2,2) <= 80
MCLin4(0,2,2):  80 y(2,0,2) - u(0,2,2) >= -0
MCLin5(0,2,2):  -86 y(2,0,2) + v(0,2,2) - u(0,2,2) >= -86
MCLin6(2,0,2):  u(2,0,2) >= -0
MCLin7(2,0,2):  -91 y(0,2,2) - u(2,0,2) <= -0
MCLin8(2,0,2):  75 y(0,2,2) + v(2,0,2) - u(2,0,2) <= 75
MCLin9(2,0,2):  75 y(0,2,2) - u(2,0,2) >= -0
MCLin10(2,0,2):  -91 y(0,2,2) + v(2,0,2) - u(2,0,2) >= -91
MCLinV(0,2,3):  x(0,3) - v(0,2,3) - x(2,3) = 10
MCLinV(2,0,3):  - x(0,3) - v(2,0,3) + x(2,3) = 3
MCLin1(0,2,3):  u(0,2,3) >= -0
MCLin2(0,2,3):  -91 y(2,0,3) - u(0,2,3) <= -0
MCLin3(0,2,3):  75 y(2,0,3) + v(0,2,3) - u(0,2,3) <= 75
MCLin4(0,2,3):  75 y(2,0,3) - u(0,2,3) >= -0
MCLin5(0,2,3):  -91 y(2,0,3) + v(0,2,3) - u(0,2,3) >= -91
MCLin6(2,0,3):  u(2,0,3) >= -0
MCLin7(2,0,3):  -88 y(0,2,3) - u(2,0,3) <= -0
MCLin8(2,0,3):  78 y(0,2,3) + v(2,0,3) - u(2,0,3) <= 78
MCLin9(2,0,3):  78 y(0,2,3) - u(2,0,3) >= -0
MCLin10(2,0,3):  -88 y(0,2,3) + v(2,0,3) - u(2,0,3) >= -88
MCLinV(0,3,0):  x(0,0) - v(0,3,0) - x(3,0) = 9
MCLinV(3,0,0):  - x(0,0) - v(3,0,0) + x(3,0) = 8
MCLin1(0,3,0):  u(0,3,0) >= -0
MCLin2(0,3,0):  -99 y(3,0,0) - u(0,3,0) <= -0
MCLin3(0,3,0):  66 y(3,0,0) + v(0,3,0) - u(0,3,0) <= 66
MCLin4(0,3,0):  66 y(3,0,0) - u(0,3,0) >= -0
MCLin5(0,3,0):  -99 y(3,0,0) + v(0,3,0) - u(0,3,0) >= -99
MCLin6(3,0,0):  u(3,0,0) >= -0
MCLin7(3,0,0):  -83 y(0,3,0) - u(3,0,0) <= -0
MCLin8(3,0,0):  82 y(0,3,0) + v(3,0,0) - u(3,0,0) <= 82
MCLin9(3,0,0):  82 y(0,3,0) - u(3,0,0) >= -0
MCLin10(3,0,0):  -83 y(0,3,0) + v(3,0,0) - u(3,0,0) >= -83
MCLinV(0,3,1):  x(0,1) - v(0,3,1) - x(3,1) = 5
MCLinV(3,0,1):  - x(0,1) - v(3,0,1) + x(3,1) = 6
MCLin1(0,3,1):  u(0,3,1) >= -0
MCLin2(0,3,1):  -68 y(3,0,1) - u(0,3,1) <= -0
MCLin3(0,3,1):  97 y(3,0,1) + v(0,3,1) - u(0,3,1) <= 97
MCLin4(0,3,1):  97 y(3,0,1) - u(0,3,1) >= -0
MCLin5(0,3,1):  -68 y(3,0,1) + v(0,3,1) - u(0,3,1) >= -68
MCLin6(3,0,1):  u(3,0,1) >= -0
MCLin7(3,0,1):  -108 y(0,3,1) - u(3,0,1) <= -0
MCLin8(3,0,1):  57 y(0,3,1) + v(3,0,1) - u(3,0,1) <= 57
MCLin9(3,0,1):  57 y(0,3,1) - u(3,0,1) >= -0
MCLin10(3,0,1):  -108 y(0,3,1) + v(3,0,1) - u(3,0,1) >= -108
MCLinV(0,3,2):  x(0,2) - v(0,3,2) - x(3,2) = 4
MCLinV(3,0,2):  - x(0,2) - v(3,0,2) + x(3,2) = 9
MCLin1(0,3,2):  u(0,3,2) >= -0
MCLin2(0,3,2):  -92 y(3,0,2) - u(0,3,2) <= -0
MCLin3(0,3,2):  73 y(3,0,2) + v(0,3,2) - u(0,3,2) <= 73
MCLin4(0,3,2):  73 y(3,0,2) - u(0,3,2) >= -0
MCLin5(0,3,2):  -92 y(3,0,2) + v(0,3,2) - u(0,3,2) >= -92
MCLin6(3,0,2):  u(3,0,2) >= -0
MCLin7(3,0,2):  -86 y(0,3,2) - u(3,0,2) <= -0
MCLin8(3,0,2):  79 y(0,3,2) + v(3,0,2) - u(3,0,2) <= 79
MCLin9(3,0,2):  79 y(0,3,2) - u(3,0,2) >= -0
MCLin10(3,0,2):  -86 y(0,3,2) + v(3,0,2) - u(3,0,2) >= -86
MCLinV(0,3,3):  x(0,3) - v(0,3,3) - x(3,3) = 7
MCLinV(3,0,3):  - x(0,3) - v(3,0,3) + x(3,3) = 3
MCLin1(0,3,3):  u(0,3,3) >= -0
MCLin2(0,3,3):  -82 y(3,0,3) - u(0,3,3) <= -0
MCLin3(0,3,3):  83 y(3,0,3) + v(0,3,3) - u(0,3,3) <= 83
MCLin4(0,3,3):  83 y(3,0,3) - u(0,3,3) >= -0
MCLin5(0,3,3):  -82 y(3,0,3) + v(0,3,3) - u(0,3,3) >= -82
MCLin6(3,0,3):  u(3,0,3) >= -0
MCLin7(3,0,3):  -93 y(0,3,3) - u(3,0,3) <= -0
MCLin8(3,0,3):  72 y(0,3,3) + v(3,0,3) - u(3,0,3) <= 72
MCLin9(3,0,3):  72 y(0,3,3) - u(3,0,3) >= -0
MCLin10(3,0,3):  -93 y(0,3,3) + v(3,0,3) - u(3,0,3) >= -93
MCLinV(1,2,0):  x(1,0) - v(1,2,0) - x(2,0) = 7
MCLinV(2,1,0):  - x(1,0) - v(2,1,0) + x(2,0) = 9
MCLin1(1,2,0):  u(1,2,0) >= -0
MCLin2(1,2,0):  -89 y(2,1,0) - u(1,2,0) <= -0
MCLin3(1,2,0):  70 y(2,1,0) + v(1,2,0) - u(1,2,0) <= 70
MCLin4(1,2,0):  70 y(2,1,0) - u(1,2,0) >= -0
MCLin5(1,2,0):  -89 y(2,1,0) + v(1,2,0) - u(1,2,0) >= -89
MCLin6(2,1,0):  u(2,1,0) >= -0
MCLin7(2,1,0):  -86 y(1,2,0) - u(2,1,0) <= -0
MCLin8(2,1,0):  73 y(1,2,0) + v(2,1,0) - u(2,1,0) <= 73
MCLin9(2,1,0):  73 y(1,2,0) - u(2,1,0) >= -0
MCLin10(2,1,0):  -86 y(1,2,0) + v(2,1,0) - u(2,1,0) >= -86
MCLinV(1,2,1):  x(1,1) - v(1,2,1) - x(2,1) = 5
MCLinV(2,1,1):  - x(1,1) - v(2,1,1) + x(2,1) = 9
MCLin1(1,2,1):  u(1,2,1) >= -0
MCLin2(1,2,1):  -91 y(2,1,1) - u(1,2,1) <= -0
MCLin3(1,2,1):  68 y(2,1,1) + v(1,2,1) - u(1,2,1) <= 68
MCLin4(1,2,1):  68 y(2,1,1) - u(1,2,1) >= -0
MCLin5(1,2,1):  -91 y(2,1,1) + v(1,2,1) - u(1,2,1) >= -91
MCLin6(2,1,1):  u(2,1,1) >= -0
MCLin7(2,1,1):  -82 y(1,2,1) - u(2,1,1) <= -0
MCLin8(2,1,1):  77 y(1,2,1) + v(2,1,1) - u(2,1,1) <= 77
MCLin9(2,1,1):  77 y(1,2,1) - u(2,1,1) >= -0
MCLin10(2,1,1):  -82 y(1,2,1) + v(2,1,1) - u(2,1,1) >= -82
MCLinV(1,2,2):  x(1,2) - v(1,2,2) - x(2,2) = 2
MCLinV(2,1,2):  - x(1,2) - v(2,1,2) + x(2,2) = 9
MCLin1(1,2,2):  u(1,2,2) >= -0
MCLin2(1,2,2):  -68 y(2,1,2) - u(1,2,2) <= -0
MCLin3(1,2,2):  91 y(2,1,2) + v(1,2,2) - u(1,2,2) <= 91
MCLin4(1,2,2):  91 y(2,1,2) - u(1,2,2) >= -0
MCLin5(1,2,2):  -68 y(2,1,2) + v(1,2,2) - u(1,2,2) >= -68
MCLin6(2,1,2):  u(2,1,2) >= -0
MCLin7(2,1,2):  -102 y(1,2,2) - u(2,1,2) <= -0
MCLin8(2,1,2):  57 y(1,2,2) + v(2,1,2) - u(2,1,2) <= 57
MCLin9(2,1,2):  57 y(1,2,2) - u(2,1,2) >= -0
MCLin10(2,1,2):  -102 y(1,2,2) + v(2,1,2) - u(2,1,2) >= -102
MCLinV(1,2,3):  x(1,3) - v(1,2,3) - x(2,3) = 10
MCLinV(2,1,3):  - x(1,3) - v(2,1,3) + x(2,3) = 6
MCLin1(1,2,3):  u(1,2,3) >= -0
MCLin2(1,2,3):  -81 y(2,1,3) - u(1,2,3) <= -0
MCLin3(1,2,3):  78 y(2,1,3) + v(1,2,3) - u(1,2,3) <= 78
MCLin4(1,2,3):  78 y(2,1,3) - u(1,2,3) >= -0
MCLin5(1,2,3):  -81 y(2,1,3) + v(1,2,3) - u(1,2,3) >= -81
MCLin6(2,1,3):  u(2,1,3) >= -0
MCLin7(2,1,3):  -94 y(1,2,3) - u(2,1,3) <= -0
MCLin8(2,1,3):  65 y(1,2,3) + v(2,1,3) - u(2,1,3) <= 65
MCLin9(2,1,3):  65 y(1,2,3) - u(2,1,3) >= -0
MCLin10(2,1,3):  -94 y(1,2,3) + v(2,1,3) - u(2,1,3) >= -94
MCLinV(1,3,0):  x(1,0) - v(1,3,0) - x(3,0) = 9
MCLinV(3,1,0):  - x(1,0) - v(3,1,0) + x(3,0) = 9
MCLin1(1,3,0):  u(1,3,0) >= -0
MCLin2(1,3,0):  -99 y(3,1,0) - u(1,3,0) <= -0
MCLin3(1,3,0):  59 y(3,1,0) + v(1,3,0) - u(1,3,0) <= 59
MCLin4(1,3,0):  59 y(3,1,0) - u(1,3,0) >= -0
MCLin5(1,3,0):  -99 y(3,1,0) + v(1,3,0) - u(1,3,0) >= -99
MCLin6(3,1,0):  u(3,1,0) >= -0
MCLin7(3,1,0):  -77 y(1,3,0) - u(3,1,0) <= -0
MCLin8(3,1,0):  81 y(1,3,0) + v(3,1,0) - u(3,1,0) <= 81
MCLin9(3,1,0):  81 y(1,3,0) - u(3,1,0) >= -0
MCLin10(3,1,0):  -77 y(1,3,0) + v(3,1,0) - u(3,1,0) >= -77
MCLinV(1,3,1):  x(1,1) - v(1,3,1) - x(3,1) = 5
MCLinV(3,1,1):  - x(1,1) - v(3,1,1) + x(3,1) = 9
MCLin1(1,3,1):  u(1,3,1) >= -0
MCLin2(1,3,1):  -88 y(3,1,1) - u(1,3,1) <= -0
MCLin3(1,3,1):  70 y(3,1,1) + v(1,3,1) - u(1,3,1) <= 70
MCLin4(1,3,1):  70 y(3,1,1) - u(1,3,1) >= -0
MCLin5(1,3,1):  -88 y(3,1,1) + v(1,3,1) - u(1,3,1) >= -88
MCLin6(3,1,1):  u(3,1,1) >= -0
MCLin7(3,1,1):  -84 y(1,3,1) - u(3,1,1) <= -0
MCLin8(3,1,1):  74 y(1,3,1) + v(3,1,1) - u(3,1,1) <= 74
MCLin9(3,1,1):  74 y(1,3,1) - u(3,1,1) >= -0
MCLin10(3,1,1):  -84 y(1,3,1) + v(3,1,1) - u(3,1,1) >= -84
MCLinV(1,3,2):  x(1,2) - v(1,3,2) - x(3,2) = 4
MCLinV(3,1,2):  - x(1,2) - v(3,1,2) + x(3,2) = 9
MCLin1(1,3,2):  u(1,3,2) >= -0
MCLin2(1,3,2):  -74 y(3,1,2) - u(1,3,2) <= -0
MCLin3(1,3,2):  84 y(3,1,2) + v(1,3,2) - u(1,3,2) <= 84
MCLin4(1,3,2):  84 y(3,1,2) - u(1,3,2) >= -0
MCLin5(1,3,2):  -74 y(3,1,2) + v(1,3,2) - u(1,3,2) >= -74
MCLin6(3,1,2):  u(3,1,2) >= -0
MCLin7(3,1,2):  -97 y(1,3,2) - u(3,1,2) <= -0
MCLin8(3,1,2):  61 y(1,3,2) + v(3,1,2) - u(3,1,2) <= 61
MCLin9(3,1,2):  61 y(1,3,2) - u(3,1,2) >= -0
MCLin10(3,1,2):  -97 y(1,3,2) + v(3,1,2) - u(3,1,2) >= -97
MCLinV(1,3,3):  x(1,3) - v(1,3,3) - x(3,3) = 7
MCLinV(3,1,3):  - x(1,3) - v(3,1,3) + x(3,3) = 6
MCLin1(1,3,3):  u(1,3,3) >= -0
MCLin2(1,3,3):  -72 y(3,1,3) - u(1,3,3) <= -0
MCLin3(1,3,3):  86 y(3,1,3) + v(1,3,3) - u(1,3,3) <= 86
MCLin4(1,3,3):  86 y(3,1,3) - u(1,3,3) >= -0
MCLin5(1,3,3):  -72 y(3,1,3) + v(1,3,3) - u(1,3,3) >= -72
MCLin6(3,1,3):  u(3,1,3) >= -0
MCLin7(3,1,3):  -99 y(1,3,3) - u(3,1,3) <= -0
MCLin8(3,1,3):  59 y(1,3,3) + v(3,1,3) - u(3,1,3) <= 59
MCLin9(3,1,3):  59 y(1,3,3) - u(3,1,3) >= -0
MCLin10(3,1,3):  -99 y(1,3,3) + v(3,1,3) - u(3,1,3) >= -99
MCLinV(2,3,0):  x(2,0) - v(2,3,0) - x(3,0) = 9
MCLinV(3,2,0):  - x(2,0) - v(3,2,0) + x(3,0) = 7
MCLin1(2,3,0):  u(2,3,0) >= -0
MCLin2(2,3,0):  -101 y(3,2,0) - u(2,3,0) <= -0
MCLin3(2,3,0):  66 y(3,2,0) + v(2,3,0) - u(2,3,0) <= 66
MCLin4(2,3,0):  66 y(3,2,0) - u(2,3,0) >= -0
MCLin5(2,3,0):  -101 y(3,2,0) + v(2,3,0) - u(2,3,0) >= -101
MCLin6(3,2,0):  u(3,2,0) >= -0
MCLin7(3,2,0):  -82 y(2,3,0) - u(3,2,0) <= -0
MCLin8(3,2,0):  85 y(2,3,0) + v(3,2,0) - u(3,2,0) <= 85
MCLin9(3,2,0):  85 y(2,3,0) - u(3,2,0) >= -0
MCLin10(3,2,0):  -82 y(2,3,0) + v(3,2,0) - u(3,2,0) >= -82
MCLinV(2,3,1):  x(2,1) - v(2,3,1) - x(3,1) = 5
MCLinV(3,2,1):  - x(2,1) - v(3,2,1) + x(3,1) = 5
MCLin1(2,3,1):  u(2,3,1) >= -0
MCLin2(2,3,1):  -86 y(3,2,1) - u(2,3,1) <= -0
MCLin3(2,3,1):  81 y(3,2,1) + v(2,3,1) - u(2,3,1) <= 81
MCLin4(2,3,1):  81 y(3,2,1) - u(2,3,1) >= -0
MCLin5(2,3,1):  -86 y(3,2,1) + v(2,3,1) - u(2,3,1) >= -86
MCLin6(3,2,1):  u(3,2,1) >= -0
MCLin7(3,2,1):  -91 y(2,3,1) - u(3,2,1) <= -0
MCLin8(3,2,1):  76 y(2,3,1) + v(3,2,1) - u(3,2,1) <= 76
MCLin9(3,2,1):  76 y(2,3,1) - u(3,2,1) >= -0
MCLin10(3,2,1):  -91 y(2,3,1) + v(3,2,1) - u(3,2,1) >= -91
MCLinV(2,3,2):  x(2,2) - v(2,3,2) - x(3,2) = 4
MCLinV(3,2,2):  - x(2,2) - v(3,2,2) + x(3,2) = 2
MCLin1(2,3,2):  u(2,3,2) >= -0
MCLin2(2,3,2):  -92 y(3,2,2) - u(2,3,2) <= -0
MCLin3(2,3,2):  75 y(3,2,2) + v(2,3,2) - u(2,3,2) <= 75
MCLin4(2,3,2):  75 y(3,2,2) - u(2,3,2) >= -0
MCLin5(2,3,2):  -92 y(3,2,2) + v(2,3,2) - u(2,3,2) >= -92
MCLin6(3,2,2):  u(3,2,2) >= -0
MCLin7(3,2,2):  -81 y(2,3,2) - u(3,2,2) <= -0
MCLin8(3,2,2):  86 y(2,3,2) + v(3,2,2) - u(3,2,2) <= 86
MCLin9(3,2,2):  86 y(2,3,2) - u(3,2,2) >= -0
MCLin10(3,2,2):  -81 y(2,3,2) + v(3,2,2) - u(3,2,2) >= -81
MCLinV(2,3,3):  x(2,3) - v(2,3,3) - x(3,3) = 7
MCLinV(3,2,3):  - x(2,3) - v(3,2,3) + x(3,3) = 10
MCLin1(2,3,3):  u(2,3,3) >= -0
MCLin2(2,3,3):  -85 y(3,2,3) - u(2,3,3) <= -0
MCLin3(2,3,3):  82 y(3,2,3) + v(2,3,3) - u(2,3,3) <= 82
MCLin4(2,3,3):  82 y(3,2,3) - u(2,3,3) >= -0
MCLin5(2,3,3):  -85 y(3,2,3) + v(2,3,3) - u(2,3,3) >= -85
MCLin6(3,2,3):  u(3,2,3) >= -0
MCLin7(3,2,3):  -99 y(2,3,3) - u(3,2,3) <= -0
MCLin8(3,2,3):  68 y(2,3,3) + v(3,2,3) - u(3,2,3) <= 68
MCLin9(3,2,3):  68 y(2,3,3) - u(3,2,3) >= -0
MCLin10(3,2,3):  -99 y(2,3,3) + v(3,2,3) - u(3,2,3) >= -99
makespan(0):  C - x(0,1) >= 6
makespan(1):  C - x(1,3) >= 6
makespan(2):  C - x(2,3) >= 10
makespan(3):  C - x(3,0) >= 9
Bounds
 0 <= C <= 108
 9 <= x(0,0) <= 91
 0 <= y(0,1,0) <= 1
 0 <= y(1,0,0) <= 1
 -84 <= v(0,1,0) <= 73
 -90 <= v(1,0,0) <= 67
 -1080 <= u(0,1,0)
 -1080 <= u(1,0,0)
 0 <= y(0,2,0) <= 1
 0 <= y(2,0,0) <= 1
 -89 <= v(0,2,0) <= 77
 -92 <= v(2,0,0) <= 74
 -1080 <= u(0,2,0)
 -1080 <= u(2,0,0)
 0 <= y(0,3,0) <= 1
 0 <= y(3,0,0) <= 1
 -99 <= v(0,3,0) <= 66
 -83 <= v(3,0,0) <= 82
 -1080 <= u(0,3,0)
 -1080 <= u(3,0,0)
 9 <= x(1,0) <= 84
 0 <= y(1,2,0) <= 1
 0 <= y(2,1,0) <= 1
 -89 <= v(1,2,0) <= 70
 -86 <= v(2,1,0) <= 73
 -1080 <= u(1,2,0)
 -1080 <= u(2,1,0)
 0 <= y(1,3,0) <= 1
 0 <= y(3,1,0) <= 1
 -99 <= v(1,3,0) <= 59
 -77 <= v(3,1,0) <= 81
 -1080 <= u(1,3,0)
 -1080 <= u(3,1,0)
 7 <= x(2,0) <= 91
 0 <= y(2,3,0) <= 1
 0 <= y(3,2,0) <= 1
 -101 <= v(2,3,0) <= 66
 -82 <= v(3,2,0) <= 85
 -1080 <= u(2,3,0)
 -1080 <= u(3,2,0)
 16 <= x(3,0) <= 99
 20 <= x(0,1) <= 102
 0 <= y(0,1,1) <= 1
 0 <= y(1,0,1) <= 1
 -64 <= v(0,1,1) <= 93
 -108 <= v(1,0,1) <= 49
 -1080 <= u(0,1,1)
 -1080 <= u(1,0,1)
 0 <= y(0,2,1) <= 1
 0 <= y(2,0,1) <= 1
 -71 <= v(0,2,1) <= 95
 -106 <= v(2,0,1) <= 60
 -1080 <= u(0,2,1)
 -1080 <= u(2,0,1)
 0 <= y(0,3,1) <= 1
 0 <= y(3,0,1) <= 1
 -68 <= v(0,3,1) <= 97
 -108 <= v(3,0,1) <= 57
 -1080 <= u(0,3,1)
 -1080 <= u(3,0,1)
 0 <= x(1,1) <= 75
 0 <= y(1,2,1) <= 1
 0 <= y(2,1,1) <= 1
 -91 <= v(1,2,1) <= 68
 -82 <= v(2,1,1) <= 77
 -1080 <= u(1,2,1)
 -1080 <= u(2,1,1)
 0 <= y(1,3,1) <= 1
 0 <= y(3,1,1) <= 1
 -88 <= v(1,3,1) <= 70
 -84 <= v(3,1,1) <= 74
 -1080 <= u(1,3,1)
 -1080 <= u(3,1,1)
 2 <= x(2,1) <= 86
 0 <= y(2,3,1) <= 1
 0 <= y(3,2,1) <= 1
 -86 <= v(2,3,1) <= 81
 -91 <= v(3,2,1) <= 76
 -1080 <= u(2,3,1)
 -1080 <= u(3,2,1)
 0 <= x(3,1) <= 83
 0 <= x(0,2) <= 82
 0 <= y(0,1,2) <= 1
 0 <= y(1,0,2) <= 1
 -102 <= v(0,1,2) <= 55
 -73 <= v(1,0,2) <= 84
 -1080 <= u(0,1,2)
 -1080 <= u(1,0,2)
 0 <= y(0,2,2) <= 1
 0 <= y(2,0,2) <= 1
 -86 <= v(0,2,2) <= 80
 -91 <= v(2,0,2) <= 75
 -1080 <= u(0,2,2)
 -1080 <= u(2,0,2)
 0 <= y(0,3,2) <= 1
 0 <= y(3,0,2) <= 1
 -92 <= v(0,3,2) <= 73
 -86 <= v(3,0,2) <= 79
 -1080 <= u(0,3,2)
 -1080 <= u(3,0,2)
 18 <= x(1,2) <= 93
 0 <= y(1,2,2) <= 1
 0 <= y(2,1,2) <= 1
 -68 <= v(1,2,2) <= 91
 -102 <= v(2,1,2) <= 57
 -1080 <= u(1,2,2)
 -1080 <= u(2,1,2)
 0 <= y(1,3,2) <= 1
 0 <= y(3,1,2) <= 1
 -74 <= v(1,3,2) <= 84
 -97 <= v(3,1,2) <= 61
 -1080 <= u(1,3,2)
 -1080 <= u(3,1,2)
 0 <= x(2,2) <= 84
 0 <= y(2,3,2) <= 1
 0 <= y(3,2,2) <= 1
 -92 <= v(2,3,2) <= 75
 -81 <= v(3,2,2) <= 86
 -1080 <= u(2,3,2)
 -1080 <= u(3,2,2)
 5 <= x(3,2) <= 88
 17 <= x(0,3) <= 99
 0 <= y(0,1,3) <= 1
 0 <= y(1,0,3) <= 1
 -91 <= v(0,1,3) <= 66
 -75 <= v(1,0,3) <= 82
 -1080 <= u(0,1,3)
 -1080 <= u(1,0,3)
 0 <= y(0,2,3) <= 1
 0 <= y(2,0,3) <= 1
 -91 <= v(0,2,3) <= 75
 -88 <= v(2,0,3) <= 78
 -1080 <= u(0,2,3)
 -1080 <= u(2,0,3)
 0 <= y(0,3,3) <= 1
 0 <= y(3,0,3) <= 1
 -82 <= v(0,3,3) <= 83
 -93 <= v(3,0,3) <= 72
 -1080 <= u(0,3,3)
 -1080 <= u(3,0,3)
 27 <= x(1,3) <= 102
 0 <= y(1,2,3) <= 1
 0 <= y(2,1,3) <= 1
 -81 <= v(1,2,3) <= 78
 -94 <= v(2,1,3) <= 65
 -1080 <= u(1,2,3)
 -1080 <= u(2,1,3)
 0 <= y(1,3,3) <= 1
 0 <= y(3,1,3) <= 1
 -72 <= v(1,3,3) <= 86
 -99 <= v(3,1,3) <= 59
 -1080 <= u(1,3,3)
 -1080 <= u(3,1,3)
 14 <= x(2,3) <= 98
 0 <= y(2,3,3) <= 1
 0 <= y(3,2,3) <= 1
 -85 <= v(2,3,3) <= 82
 -99 <= v(3,2,3) <= 68
 -1080 <= u(2,3,3)
 -1080 <= u(3,2,3)
 9 <= x(3,3) <= 92
Integers
C x(0,0) y(0,1,0) y(1,0,0) v(0,1,0) v(1,0,0) u(0,1,0) u(1,0,0) y(0,2,0) y(2,0,0) 
v(0,2,0) v(2,0,0) u(0,2,0) u(2,0,0) y(0,3,0) y(3,0,0) v(0,3,0) v(3,0,0) u(0,3,0) u(3,0,0) 
x(1,0) y(1,2,0) y(2,1,0) v(1,2,0) v(2,1,0) u(1,2,0) u(2,1,0) y(1,3,0) y(3,1,0) v(1,3,0) 
v(3,1,0) u(1,3,0) u(3,1,0) x(2,0) y(2,3,0) y(3,2,0) v(2,3,0) v(3,2,0) u(2,3,0) u(3,2,0) 
x(3,0) x(0,1) y(0,1,1) y(1,0,1) v(0,1,1) v(1,0,1) u(0,1,1) u(1,0,1) y(0,2,1) y(2,0,1) 
v(0,2,1) v(2,0,1) u(0,2,1) u(2,0,1) y(0,3,1) y(3,0,1) v(0,3,1) v(3,0,1) u(0,3,1) u(3,0,1) 
x(1,1) y(1,2,1) y(2,1,1) v(1,2,1) v(2,1,1) u(1,2,1) u(2,1,1) y(1,3,1) y(3,1,1) v(1,3,1) 
v(3,1,1) u(1,3,1) u(3,1,1) x(2,1) y(2,3,1) y(3,2,1) v(2,3,1) v(3,2,1) u(2,3,1) u(3,2,1) 
x(3,1) x(0,2) y(0,1,2) y(1,0,2) v(0,1,2) v(1,0,2) u(0,1,2) u(1,0,2) y(0,2,2) y(2,0,2) 
v(0,2,2) v(2,0,2) u(0,2,2) u(2,0,2) y(0,3,2) y(3,0,2) v(0,3,2) v(3,0,2) u(0,3,2) u(3,0,2) 
x(1,2) y(1,2,2) y(2,1,2) v(1,2,2) v(2,1,2) u(1,2,2) u(2,1,2) y(1,3,2) y(3,1,2) v(1,3,2) 
v(3,1,2) u(1,3,2) u(3,1,2) x(2,2) y(2,3,2) y(3,2,2) v(2,3,2) v(3,2,2) u(2,3,2) u(3,2,2) 
x(3,2) x(0,3) y(0,1,3) y(1,0,3) v(0,1,3) v(1,0,3) u(0,1,3) u(1,0,3) y(0,2,3) y(2,0,3) 
v(0,2,3) v(2,0,3) u(0,2,3) u(2,0,3) y(0,3,3) y(3,0,3) v(0,3,3) v(3,0,3) u(0,3,3) u(3,0,3) 
x(1,3) y(1,2,3) y(2,1,3) v(1,2,3) v(2,1,3) u(1,2,3) u(2,1,3) y(1,3,3) y(3,1,3) v(1,3,3) 
v(3,1,3) u(1,3,3) u(3,1,3) x(2,3) y(2,3,3) y(3,2,3) v(2,3,3) v(3,2,3) u(2,3,3) u(3,2,3) 
x(3,3) 
End
